set Tareas:= Inicio 1 2 3 4 5 6 7 8 9 10 11 12 13 14 Fin;
#set Tareas:= 1 2 3 4 5 6 7 8 9 10 11 12 13 14;

set Precedencias:=
Inicio 1
Inicio 13
1 2
2 3
2 4
2 6
3 5
4 7
4 8
5 9
6 9
6 10
7 10
8 11
9 12
10 14
11 14
12 14
13 14
14 Fin
;

#param C:= (6.7*60*60)/980;
param TaktTime:= 24.62;

param t:=
1 6
2 3
3 9
4 6
5 5
6 10
7 8
8 4
9 9
10 8
11 4
12 12
13 7
14 3
;


